p cnf 999 547
158 0
193 0
211 0
282 0
295 0
346 0
359 0
388 0
394 0
433 0
462 0
522 0
548 0
569 0
629 0
657 0
731 0
799 0
837 0
853 0
896 0
913 0
968 0
984 0
-151 0
-152 0
-153 0
-154 0
-155 0
-156 0
-157 0
-159 0
-191 0
-192 0
-194 0
-195 0
-196 0
-197 0
-198 0
-199 0
-212 0
-213 0
-214 0
-215 0
-216 0
-217 0
-218 0
-219 0
-281 0
-283 0
-284 0
-285 0
-286 0
-287 0
-288 0
-289 0
-291 0
-292 0
-293 0
-294 0
-296 0
-297 0
-298 0
-299 0
-341 0
-342 0
-343 0
-344 0
-345 0
-347 0
-348 0
-349 0
-351 0
-352 0
-353 0
-354 0
-355 0
-356 0
-357 0
-358 0
-381 0
-382 0
-383 0
-384 0
-385 0
-386 0
-387 0
-389 0
-391 0
-392 0
-393 0
-395 0
-396 0
-397 0
-398 0
-399 0
-431 0
-432 0
-434 0
-435 0
-436 0
-437 0
-438 0
-439 0
-461 0
-463 0
-464 0
-465 0
-466 0
-467 0
-468 0
-469 0
-521 0
-523 0
-524 0
-525 0
-526 0
-527 0
-528 0
-529 0
-541 0
-542 0
-543 0
-544 0
-545 0
-546 0
-547 0
-549 0
-561 0
-562 0
-563 0
-564 0
-565 0
-566 0
-567 0
-568 0
-621 0
-622 0
-623 0
-624 0
-625 0
-626 0
-627 0
-628 0
-651 0
-652 0
-653 0
-654 0
-655 0
-656 0
-658 0
-659 0
-732 0
-733 0
-734 0
-735 0
-736 0
-737 0
-738 0
-739 0
-791 0
-792 0
-793 0
-794 0
-795 0
-796 0
-797 0
-798 0
-831 0
-832 0
-833 0
-834 0
-835 0
-836 0
-838 0
-839 0
-851 0
-852 0
-854 0
-855 0
-856 0
-857 0
-858 0
-859 0
-891 0
-892 0
-893 0
-894 0
-895 0
-897 0
-898 0
-899 0
-911 0
-912 0
-914 0
-915 0
-916 0
-917 0
-918 0
-919 0
-961 0
-962 0
-963 0
-964 0
-965 0
-966 0
-967 0
-969 0
-981 0
-982 0
-983 0
-985 0
-986 0
-987 0
-988 0
-989 0
-111 0
-121 0
-131 0
-221 0
-231 0
-311 0
-321 0
-331 0
-146 0
-166 0
-246 0
-256 0
-266 0
-366 0
-148 0
-168 0
-248 0
-258 0
-268 0
-368 0
-149 0
-169 0
-249 0
-259 0
-269 0
-369 0
-172 0
-182 0
-272 0
-372 0
-173 0
-183 0
-273 0
-373 0
-174 0
-184 0
-274 0
-374 0
-175 0
-185 0
-275 0
-375 0
-178 0
-188 0
-278 0
-378 0
-412 0
-422 0
-512 0
-532 0
-612 0
-632 0
-413 0
-423 0
-513 0
-533 0
-613 0
-633 0
-419 0
-429 0
-519 0
-539 0
-619 0
-639 0
-442 0
-452 0
-552 0
-642 0
-662 0
-447 0
-457 0
-557 0
-647 0
-667 0
-448 0
-458 0
-558 0
-648 0
-668 0
-449 0
-459 0
-559 0
-649 0
-669 0
-711 0
-721 0
-811 0
-821 0
-921 0
-931 0
-713 0
-723 0
-813 0
-823 0
-923 0
-933 0
-717 0
-727 0
-817 0
-827 0
-927 0
-937 0
-743 0
-753 0
-763 0
-843 0
-863 0
-943 0
-953 0
-748 0
-758 0
-768 0
-848 0
-868 0
-948 0
-958 0
-774 0
-784 0
-874 0
-884 0
-974 0
-994 0
-776 0
-786 0
-876 0
-886 0
-976 0
-996 0
-779 0
-789 0
-879 0
-889 0
-979 0
-999 0
-113 0
-123 0
-133 0
-143 0
-163 0
-118 0
-128 0
-138 0
-241 0
-251 0
-261 0
-271 0
-222 0
-232 0
-242 0
-252 0
-262 0
-225 0
-235 0
-245 0
-255 0
-265 0
-314 0
-324 0
-334 0
-364 0
-316 0
-326 0
-336 0
-376 0
-318 0
-328 0
-338 0
-319 0
-329 0
-339 0
-379 0
-472 0
-482 0
-492 0
-443 0
-453 0
-473 0
-483 0
-493 0
-572 0
-582 0
-592 0
-518 0
-538 0
-578 0
-588 0
-598 0
-579 0
-589 0
-599 0
-617 0
-637 0
-677 0
-687 0
-697 0
-679 0
-689 0
-699 0
-741 0
-751 0
-761 0
-771 0
-781 0
-719 0
-729 0
-749 0
-759 0
-769 0
-873 0
-883 0
-816 0
-826 0
-846 0
-866 0
-847 0
-867 0
-877 0
-887 0
-973 0
-993 0
-924 0
-934 0
-944 0
-954 0
-928 0
-938 0
-978 0
-998 0
-411 0
-511 0
-611 0
-313 0
-122 0
-322 0
-722 0
-822 0
-922 0
-129 0
-229 0
-829 0
-929 0
-531 0
-631 0
-233 0
-333 0
-137 0
-237 0
-337 0
-537 0
-446 0
-646 0
-746 0
-946 0
-253 0
-553 0
-257 0
-757 0
-957 0
-959 0
-162 0
-362 0
-762 0
-862 0
-869 0
-682 0
-782 0
-882 0
-484 0
-584 0
-684 0
-488 0
-688 0
-788 0
-888 0
-593 0
-693 0
-494 0
-594 0
-694 0
-495 0
-595 0
-695 0
-995 0
-496 0
-596 0
-696 0
-499 0
254 0
142 0
421 0
-141 0
-144 0
-145 0
-147 0
-424 0
-425 0
-426 0
-427 0
-428 0
-164 0
-244 0
-264 0
-112 0
-132 0
-224 0
-234 0
-441 0
-451 0
-471 0
-481 0
-491 0
-742 0
-842 0
-942 0
-454 0
-554 0
-754 0
861 0
-864 0
-865 0
-841 0
-941 0
-951 0
-871 0
-881 0
-161 0
-361 0
-661 0
885 0
641 0
551 0